
;this file is automatically generated: Thu Jan 02 16:54:47 GMT 2020

;declarations generated

(declare-fun oclExcludes ( Int Int) Bool)
(declare-fun Cardinality ( Int) Int)
(declare-fun class42_Class42BoolAttr1 ( Int) Bool)
(declare-fun class42_Class42BoolAttr0 ( Int) Bool)
(declare-fun type_3445cee0_95e9_4ebb_a49d_8f6f7c4502cb_Class42 ( Int) Bool)
(declare-fun oclSelect ( Int Bool) Int)
(declare-fun obj_c18930ce_a6aa_422f_8720_17d6ec4bd6ca ( Int) Int)
(declare-fun Enum0 ( Int) Int)
(declare-fun Enum1 ( Int) Int)
(declare-fun Enum2 ( Int) Int)
(declare-fun class42_Class42IntAttr2 ( Int) Int)
(declare-fun container_ ( Int) Int)
(declare-fun oclIncludes ( Int Int) Bool)
(declare-fun ObjAt ( Int Int) Int)

;formula(s) generated
(assert (! (exists ((c1 Int)(c2 Int)) (and (and ( type_3445cee0_95e9_4ebb_a49d_8f6f7c4502cb_Class42 c1 )  ( type_3445cee0_95e9_4ebb_a49d_8f6f7c4502cb_Class42 c2 ) ) (or ( class42_Class42BoolAttr0 ( obj_c18930ce_a6aa_422f_8720_17d6ec4bd6ca c1 )  )  ( class42_Class42BoolAttr1 ( obj_c18930ce_a6aa_422f_8720_17d6ec4bd6ca c2 )  ) ))):named l0))
(assert (! (forall ((v Int)) (=> ( type_3445cee0_95e9_4ebb_a49d_8f6f7c4502cb_Class42 v )  (or ( class42_Class42BoolAttr1 ( obj_c18930ce_a6aa_422f_8720_17d6ec4bd6ca v )  )  (or (forall ((v Int)) (=> ( type_3445cee0_95e9_4ebb_a49d_8f6f7c4502cb_Class42 v )  (or ( class42_Class42BoolAttr0 ( obj_c18930ce_a6aa_422f_8720_17d6ec4bd6ca v )  )  (and (forall ((v Int)) (=> ( type_3445cee0_95e9_4ebb_a49d_8f6f7c4502cb_Class42 v )  ( class42_Class42BoolAttr1 ( obj_c18930ce_a6aa_422f_8720_17d6ec4bd6ca v )  ) )) (forall ((v Int)) (=> ( type_3445cee0_95e9_4ebb_a49d_8f6f7c4502cb_Class42 v )  ( class42_Class42BoolAttr0 ( obj_c18930ce_a6aa_422f_8720_17d6ec4bd6ca v )  ) )))))) (forall ((v Int)) (=> ( type_3445cee0_95e9_4ebb_a49d_8f6f7c4502cb_Class42 v )  (< ( class42_Class42IntAttr2 ( obj_c18930ce_a6aa_422f_8720_17d6ec4bd6ca v )  )  5))))))):named l1))
(assert (exists ((o Int)) ( type_3445cee0_95e9_4ebb_a49d_8f6f7c4502cb_Class42 ( obj_c18930ce_a6aa_422f_8720_17d6ec4bd6ca o )  ) ))

 ;end of formula 